tsp_instances/TSP50/instance107.tsp
NODE_COORD_SECTION
0 144 190
1 60 187
2 22 114
3 21 103
4 150 21
5 20 55
6 196 46
7 20 11
8 92 151
9 77 47
10 166 113
11 19 15
12 64 188
13 167 136
14 30 174
15 108 96
16 110 24
17 34 56
18 127 61
19 198 149
20 114 14
21 80 166
22 178 152
23 80 57
24 165 151
25 147 134
26 181 114
27 69 25
28 96 122
29 28 9
30 151 72
31 133 14
32 56 126
33 143 24
34 42 111
35 86 200
36 5 65
37 139 33
38 103 78
39 111 6
40 9 72
41 62 46
42 74 78
43 90 17
44 49 117
45 79 122
46 19 38
47 3 118
48 23 7
49 33 168
