tsp_instances/TSP50/instance107.opt.tour
TOUR_SECTION
1
9
22
36
13
2
15
50
48
3
4
35
45
33
46
29
16
39
43
24
10
42
18
6
41
37
47
12
8
49
30
28
44
17
21
40
32
5
34
38
19
31
7
27
11
26
14
20
23
25
-1